(set-option :produce-models true)
(set-logic QF_LRA)
(set-info :notes | Strip-packing problem.|)
(declare-fun x0 () Real)
(declare-fun y0 () Real)
(declare-fun x1 () Real)
(declare-fun y1 () Real)
(declare-fun x2 () Real)
(declare-fun y2 () Real)
(declare-fun x3 () Real)
(declare-fun y3 () Real)
(declare-fun x4 () Real)
(declare-fun y4 () Real)
(declare-fun x5 () Real)
(declare-fun y5 () Real)
(declare-fun x6 () Real)
(declare-fun y6 () Real)
(declare-fun x7 () Real)
(declare-fun y7 () Real)
(declare-fun x8 () Real)
(declare-fun y8 () Real)
(declare-fun z () Real)
(declare-fun c () Real)
(assert (and (= c z) (and (>= x0 0) 
(and (>= y0 0) 
(and (>= x1 0) 
(and (>= y1 0) 
(and (>= x2 0) 
(and (>= y2 0) 
(and (>= x3 0) 
(and (>= y3 0) 
(and (>= x4 0) 
(and (>= y4 0) 
(and (>= x5 0) 
(and (>= y5 0) 
(and (>= x6 0) 
(and (>= y6 0) 
(and (>= x7 0) 
(and (>= y7 0) 
(and (>= x8 0) 
(and (>= y8 0) 
(and (>= z 0) 
(and (>= c 0) 
(and (<= (+ x0 0.0282449882) z) 
(and (<= 0.9712083812 y0) 
(and (<= y0 1.5) 
(and (<= x0 (- 2.5712316899 0.0282449882)) 
(and (>= x0 0) 
(and (<= (+ x1 0.2355888525) z) 
(and (<= 0.9582637196 y1) 
(and (<= y1 1.5) 
(and (<= x1 (- 2.5712316899 0.2355888525)) 
(and (>= x1 0) 
(and (<= (+ x2 0.2527087338) z) 
(and (<= 0.7972473677 y2) 
(and (<= y2 1.5) 
(and (<= x2 (- 2.5712316899 0.2527087338)) 
(and (>= x2 0) 
(and (<= (+ x3 0.0132424701) z) 
(and (<= 0.5908593333 y3) 
(and (<= y3 1.5) 
(and (<= x3 (- 2.5712316899 0.0132424701)) 
(and (>= x3 0) 
(and (<= (+ x4 0.3166050566) z) 
(and (<= 0.4972625362 y4) 
(and (<= y4 1.5) 
(and (<= x4 (- 2.5712316899 0.3166050566)) 
(and (>= x4 0) 
(and (<= (+ x5 0.7948413459) z) 
(and (<= 0.3992428739 y5) 
(and (<= y5 1.5) 
(and (<= x5 (- 2.5712316899 0.7948413459)) 
(and (>= x5 0) 
(and (<= (+ x6 0.9432427129) z) 
(and (<= 0.2236713994 y6) 
(and (<= y6 1.5) 
(and (<= x6 (- 2.5712316899 0.9432427129)) 
(and (>= x6 0) 
(and (<= (+ x7 0.1558565482) z) 
(and (<= 0.2136955657 y7) 
(and (<= y7 1.5) 
(and (<= x7 (- 2.5712316899 0.1558565482)) 
(and (>= x7 0) 
(and (<= (+ x8 0.3645562945) z) 
(and (<= 0.0462673512 y8) 
(and (<= y8 1.5) 
(and (<= x8 (- 2.5712316899 0.3645562945)) 
(and (>= x8 0) 
(and (<= c 2.5712316899) 
(and (or (<= (+ x0 0.0282449882) x1) (or (<= (+ x1 0.2355888525) x0) (or (>= (- y0 0.9712083812) y1) (or (>= (- y1 0.9582637196) y0))))) 
(and (or (<= (+ x0 0.0282449882) x2) (or (<= (+ x2 0.2527087338) x0) (or (>= (- y0 0.9712083812) y2) (or (>= (- y2 0.7972473677) y0))))) 
(and (or (<= (+ x0 0.0282449882) x3) (or (<= (+ x3 0.0132424701) x0) (or (>= (- y0 0.9712083812) y3) (or (>= (- y3 0.5908593333) y0))))) 
(and (or (<= (+ x0 0.0282449882) x4) (or (<= (+ x4 0.3166050566) x0) (or (>= (- y0 0.9712083812) y4) (or (>= (- y4 0.4972625362) y0))))) 
(and (or (<= (+ x0 0.0282449882) x5) (or (<= (+ x5 0.7948413459) x0) (or (>= (- y0 0.9712083812) y5) (or (>= (- y5 0.3992428739) y0))))) 
(and (or (<= (+ x0 0.0282449882) x6) (or (<= (+ x6 0.9432427129) x0) (or (>= (- y0 0.9712083812) y6) (or (>= (- y6 0.2236713994) y0))))) 
(and (or (<= (+ x0 0.0282449882) x7) (or (<= (+ x7 0.1558565482) x0) (or (>= (- y0 0.9712083812) y7) (or (>= (- y7 0.2136955657) y0))))) 
(and (or (<= (+ x0 0.0282449882) x8) (or (<= (+ x8 0.3645562945) x0) (or (>= (- y0 0.9712083812) y8) (or (>= (- y8 0.0462673512) y0))))) 
(and (or (<= (+ x1 0.2355888525) x2) (or (<= (+ x2 0.2527087338) x1) (or (>= (- y1 0.9582637196) y2) (or (>= (- y2 0.7972473677) y1))))) 
(and (or (<= (+ x1 0.2355888525) x3) (or (<= (+ x3 0.0132424701) x1) (or (>= (- y1 0.9582637196) y3) (or (>= (- y3 0.5908593333) y1))))) 
(and (or (<= (+ x1 0.2355888525) x4) (or (<= (+ x4 0.3166050566) x1) (or (>= (- y1 0.9582637196) y4) (or (>= (- y4 0.4972625362) y1))))) 
(and (or (<= (+ x1 0.2355888525) x5) (or (<= (+ x5 0.7948413459) x1) (or (>= (- y1 0.9582637196) y5) (or (>= (- y5 0.3992428739) y1))))) 
(and (or (<= (+ x1 0.2355888525) x6) (or (<= (+ x6 0.9432427129) x1) (or (>= (- y1 0.9582637196) y6) (or (>= (- y6 0.2236713994) y1))))) 
(and (or (<= (+ x1 0.2355888525) x7) (or (<= (+ x7 0.1558565482) x1) (or (>= (- y1 0.9582637196) y7) (or (>= (- y7 0.2136955657) y1))))) 
(and (or (<= (+ x1 0.2355888525) x8) (or (<= (+ x8 0.3645562945) x1) (or (>= (- y1 0.9582637196) y8) (or (>= (- y8 0.0462673512) y1))))) 
(and (or (<= (+ x2 0.2527087338) x3) (or (<= (+ x3 0.0132424701) x2) (or (>= (- y2 0.7972473677) y3) (or (>= (- y3 0.5908593333) y2))))) 
(and (or (<= (+ x2 0.2527087338) x4) (or (<= (+ x4 0.3166050566) x2) (or (>= (- y2 0.7972473677) y4) (or (>= (- y4 0.4972625362) y2))))) 
(and (or (<= (+ x2 0.2527087338) x5) (or (<= (+ x5 0.7948413459) x2) (or (>= (- y2 0.7972473677) y5) (or (>= (- y5 0.3992428739) y2))))) 
(and (or (<= (+ x2 0.2527087338) x6) (or (<= (+ x6 0.9432427129) x2) (or (>= (- y2 0.7972473677) y6) (or (>= (- y6 0.2236713994) y2))))) 
(and (or (<= (+ x2 0.2527087338) x7) (or (<= (+ x7 0.1558565482) x2) (or (>= (- y2 0.7972473677) y7) (or (>= (- y7 0.2136955657) y2))))) 
(and (or (<= (+ x2 0.2527087338) x8) (or (<= (+ x8 0.3645562945) x2) (or (>= (- y2 0.7972473677) y8) (or (>= (- y8 0.0462673512) y2))))) 
(and (or (<= (+ x3 0.0132424701) x4) (or (<= (+ x4 0.3166050566) x3) (or (>= (- y3 0.5908593333) y4) (or (>= (- y4 0.4972625362) y3))))) 
(and (or (<= (+ x3 0.0132424701) x5) (or (<= (+ x5 0.7948413459) x3) (or (>= (- y3 0.5908593333) y5) (or (>= (- y5 0.3992428739) y3))))) 
(and (or (<= (+ x3 0.0132424701) x6) (or (<= (+ x6 0.9432427129) x3) (or (>= (- y3 0.5908593333) y6) (or (>= (- y6 0.2236713994) y3))))) 
(and (or (<= (+ x3 0.0132424701) x7) (or (<= (+ x7 0.1558565482) x3) (or (>= (- y3 0.5908593333) y7) (or (>= (- y7 0.2136955657) y3))))) 
(and (or (<= (+ x3 0.0132424701) x8) (or (<= (+ x8 0.3645562945) x3) (or (>= (- y3 0.5908593333) y8) (or (>= (- y8 0.0462673512) y3))))) 
(and (or (<= (+ x4 0.3166050566) x5) (or (<= (+ x5 0.7948413459) x4) (or (>= (- y4 0.4972625362) y5) (or (>= (- y5 0.3992428739) y4))))) 
(and (or (<= (+ x4 0.3166050566) x6) (or (<= (+ x6 0.9432427129) x4) (or (>= (- y4 0.4972625362) y6) (or (>= (- y6 0.2236713994) y4))))) 
(and (or (<= (+ x4 0.3166050566) x7) (or (<= (+ x7 0.1558565482) x4) (or (>= (- y4 0.4972625362) y7) (or (>= (- y7 0.2136955657) y4))))) 
(and (or (<= (+ x4 0.3166050566) x8) (or (<= (+ x8 0.3645562945) x4) (or (>= (- y4 0.4972625362) y8) (or (>= (- y8 0.0462673512) y4))))) 
(and (or (<= (+ x5 0.7948413459) x6) (or (<= (+ x6 0.9432427129) x5) (or (>= (- y5 0.3992428739) y6) (or (>= (- y6 0.2236713994) y5))))) 
(and (or (<= (+ x5 0.7948413459) x7) (or (<= (+ x7 0.1558565482) x5) (or (>= (- y5 0.3992428739) y7) (or (>= (- y7 0.2136955657) y5))))) 
(and (or (<= (+ x5 0.7948413459) x8) (or (<= (+ x8 0.3645562945) x5) (or (>= (- y5 0.3992428739) y8) (or (>= (- y8 0.0462673512) y5))))) 
(and (or (<= (+ x6 0.9432427129) x7) (or (<= (+ x7 0.1558565482) x6) (or (>= (- y6 0.2236713994) y7) (or (>= (- y7 0.2136955657) y6))))) 
(and (or (<= (+ x6 0.9432427129) x8) (or (<= (+ x8 0.3645562945) x6) (or (>= (- y6 0.2236713994) y8) (or (>= (- y8 0.0462673512) y6))))) 
(and (or (<= (+ x7 0.1558565482) x8) (or (<= (+ x8 0.3645562945) x7) (or (>= (- y7 0.2136955657) y8) (or (>= (- y8 0.0462673512) y7))))) ))))))))))))))))))))))))))))))))))))))))))))))))))))))))))))))))))))))))))))))))))))))))))))))))))))))))
(minimize c)
(check-sat)
(get-objectives)
(exit)
